words_train/words_377_SAT.qaiger
aag 36 16 0 1 20
32
16
8
22
20
12
26
30
6
4
18
10
28
2
14
24
73
34 31 6
36 35 28
38 36 5
40 10 8
42 41 32
44 30 7
46 45 43
48 46 39
50 14 12
52 50 32
54 53 48
56 15 13
58 11 9
60 58 33
62 60 56
64 63 49
66 65 55
68 66 17
70 67 16
72 71 69
i0 1 x[7]
i1 2 y[7]
i2 2 y[3]
i3 1 x[2]
i4 1 x[1]
i5 2 y[5]
i6 1 x[4]
i7 1 x[6]
i8 2 y[2]
i9 2 y[1]
i10 1 x[0]
i11 2 y[4]
i12 1 x[5]
i13 2 y[0]
i14 2 y[6]
i15 1 x[3]
o0 bv[0]
c
simplified
  <=
    subtract
      1
      or
        1
        >> 4
          1 x
    invert
      2 y
