words_train/words_377_SAT.qaiger.qdimacs
p cnf 36 61
a 9 10 11 12 13 14 15 16 0
e 1 2 3 4 5 6 7 8 17 18 19 20 21 22 23 24 25 26 27 28 29 30 31 32 33 34 35 36 0
15 -3 17 0
-15 -17 0
3 -17 0
17 -14 18 0
-17 -18 0
14 -18 0
-18 2 19 0
18 -19 0
-2 -19 0
-5 -4 20 0
5 -20 0
4 -20 0
20 -16 21 0
-20 -21 0
16 -21 0
-15 3 22 0
15 -22 0
-3 -22 0
22 21 23 0
-22 -23 0
-21 -23 0
-23 19 24 0
23 -24 0
-19 -24 0
-7 -6 25 0
7 -25 0
6 -25 0
-25 -16 26 0
25 -26 0
16 -26 0
26 -24 27 0
-26 -27 0
24 -27 0
7 6 28 0
-7 -28 0
-6 -28 0
5 4 29 0
-5 -29 0
-4 -29 0
-29 16 30 0
29 -30 0
-16 -30 0
-30 -28 31 0
30 -31 0
28 -31 0
31 24 32 0
-31 -32 0
-24 -32 0
32 27 33 0
-32 -33 0
-27 -33 0
-33 8 34 0
33 -34 0
-8 -34 0
33 -8 35 0
-33 -35 0
8 -35 0
35 34 36 0
-35 -36 0
-34 -36 0
-36 0
